presolving:
(round 1, fast)       52 del vars, 0 del conss, 0 add conss, 0 chg bounds, 0 chg sides, 0 chg coeffs, 0 upgd conss, 0 impls, 102 clqs
(round 2, exhaustive) 52 del vars, 0 del conss, 0 add conss, 0 chg bounds, 0 chg sides, 0 chg coeffs, 102 upgd conss, 0 impls, 102 clqs
   (0.0s) probing: 51/2550 (2.0%) - 0 fixings, 0 aggregations, 0 implications, 0 bound changes
   (0.0s) probing aborted: 50/50 successive totally useless probings
   Deactivated symmetry handling methods, since SCIP was built without symmetry detector (SYM=none).
presolving (3 rounds: 3 fast, 2 medium, 2 exhaustive):
 52 deleted vars, 0 deleted constraints, 0 added constraints, 0 tightened bounds, 0 added holes, 0 changed sides, 0 changed coefficients
 0 implications, 102 cliques
presolved problem has 2600 variables (2550 bin, 0 int, 0 impl, 50 cont) and 2552 constraints
    102 constraints of type <setppc>
   2450 constraints of type <linear>
Presolving Time: 0.00

 time | node  | left  |LP iter|LP it/n|mem/heur|mdpt |vars |cons |rows |cuts |sepa|confs|strbr|  dualbound   | primalbound  |  gap   | compl. 
p 0.0s|     1 |     0 |     0 |     - | vbounds|   0 |2600 |2558 |2552 |   0 |  0 |   5 |   0 | 0.000000e+00 | 1.307643e+03 |    Inf | unknown
  0.0s|     1 |     0 |   166 |     - |    33M |   0 |2600 |2558 |2552 |   0 |  0 |   5 |   0 | 3.808619e+02 | 1.307643e+03 | 243.34%| unknown
  0.0s|     1 |     0 |   260 |     - |    34M |   0 |2600 |2559 |2586 |  34 |  1 |   6 |   0 | 4.087432e+02 | 1.307643e+03 | 219.92%| unknown
  0.0s|     1 |     0 |   287 |     - |    35M |   0 |2600 |2559 |2608 |  56 |  2 |   6 |   0 | 4.102882e+02 | 1.307643e+03 | 218.71%| unknown
  1.0s|     1 |     0 |   300 |     - |    35M |   0 |2600 |2559 |2614 |  62 |  3 |   6 |   0 | 4.186691e+02 | 1.307643e+03 | 212.33%| unknown
  1.0s|     1 |     0 |   302 |     - |    36M |   0 |2600 |2559 |2615 |  63 |  4 |   6 |   0 | 4.186691e+02 | 1.307643e+03 | 212.33%| unknown
  1.0s|     1 |     0 |   315 |     - |    36M |   0 |2600 |2559 |2620 |  68 |  5 |   6 |   0 | 4.186857e+02 | 1.307643e+03 | 212.32%| unknown
  1.0s|     1 |     0 |   323 |     - |    36M |   0 |2600 |2560 |2624 |  72 |  6 |   7 |   0 | 4.186857e+02 | 1.307643e+03 | 212.32%| unknown
  1.0s|     1 |     0 |   338 |     - |    37M |   0 |2600 |2560 |2632 |  80 |  7 |   7 |   0 | 4.186857e+02 | 1.307643e+03 | 212.32%| unknown
  1.0s|     1 |     0 |   360 |     - |    37M |   0 |2600 |2560 |2636 |  84 |  8 |   7 |   0 | 4.186857e+02 | 1.307643e+03 | 212.32%| unknown
  1.0s|     1 |     0 |   372 |     - |    38M |   0 |2600 |2561 |2647 |  95 |  9 |   8 |   0 | 4.186857e+02 | 1.307643e+03 | 212.32%| unknown
  1.0s|     1 |     0 |   383 |     - |    38M |   0 |2600 |2562 |2655 | 103 | 10 |   9 |   0 | 4.186857e+02 | 1.307643e+03 | 212.32%| unknown
  1.0s|     1 |     0 |   391 |     - |    39M |   0 |2600 |2562 |2643 | 108 | 11 |   9 |   0 | 4.186857e+02 | 1.307643e+03 | 212.32%| unknown
  1.0s|     1 |     0 |   395 |     - |    40M |   0 |2600 |2562 |2647 | 112 | 12 |   9 |   0 | 4.186857e+02 | 1.307643e+03 | 212.32%| unknown
  1.0s|     1 |     0 |   399 |     - |    40M |   0 |2600 |2563 |2648 | 113 | 13 |  10 |   0 | 4.186857e+02 | 1.307643e+03 | 212.32%| unknown
 time | node  | left  |LP iter|LP it/n|mem/heur|mdpt |vars |cons |rows |cuts |sepa|confs|strbr|  dualbound   | primalbound  |  gap   | compl. 
d 3.0s|     1 |     0 |  5098 |     - |conflict|   0 |2600 |2568 |2648 |   0 | 13 |  15 |   0 | 4.186857e+02 | 6.069331e+02 |  44.96%| unknown
L 3.0s|     1 |     0 |  5098 |     - |    alns|   0 |2600 |2568 |2648 | 113 | 13 |  15 |   0 | 4.186857e+02 | 6.044836e+02 |  44.38%| unknown
  3.0s|     1 |     0 |  5098 |     - |    40M |   0 |2600 |2568 |2648 | 113 | 13 |  15 |   0 | 4.186857e+02 | 6.044836e+02 |  44.38%| unknown
  3.0s|     1 |     0 |  5128 |     - |    41M |   0 |2600 |2568 |2644 | 125 | 14 |  15 |   0 | 4.194504e+02 | 6.044836e+02 |  44.11%| unknown
  3.0s|     1 |     0 |  5153 |     - |    41M |   0 |2600 |2568 |2652 | 133 | 15 |  15 |   0 | 4.194504e+02 | 6.044836e+02 |  44.11%| unknown
  5.0s|     1 |     2 |  5153 |     - |    41M |   0 |2600 |2569 |2652 | 133 | 15 |  16 |  52 | 4.195017e+02 | 6.044836e+02 |  44.10%| unknown
* 9.0s|    14 |    13 |  5441 | 383.6 |strongbr|  13 |2600 |2570 |2608 | 137 |  1 |  17 | 206 | 4.195017e+02 | 4.612622e+02 |   9.95%| unknown
* 9.0s|    15 |    12 |  5464 | 357.9 |strongbr|  13 |2600 |2577 |2608 | 137 |  2 |  24 | 213 | 4.195017e+02 | 4.500724e+02 |   7.29%| unknown
*21.0s|    71 |    36 |  7636 | 102.6 |    LP  |  16 |2600 |3035 |2610 | 239 |  2 | 484 | 662 | 4.195053e+02 | 4.469671e+02 |   6.55%| unknown
*23.0s|    80 |    18 |  8123 |  97.1 |strongbr|  16 |2600 |3077 |2615 | 273 |  3 | 531 | 729 | 4.195053e+02 | 4.366912e+02 |   4.10%|   2.04%
 27.0s|   100 |    26 |  8920 |  85.5 |    54M |  16 |2600 |3186 |2609 | 333 |  0 | 641 | 863 | 4.195053e+02 | 4.366912e+02 |   4.10%|   8.53%
 35.0s|   200 |    87 | 12260 |  59.3 |    60M |  20 |2600 |3282 |2615 | 539 |  1 | 787 |1122 | 4.196821e+02 | 4.366912e+02 |   4.05%|  17.92%
 40.0s|   300 |   123 | 16408 |  53.4 |    61M |  20 |2600 |3434 |   0 | 797 |  0 |1000 |1220 | 4.203132e+02 | 4.366912e+02 |   3.90%|  23.89%
L41.0s|   321 |    78 | 16880 |  51.3 |    rins|  25 |2600 |3472 |2617 | 800 |  1 |1041 |1227 | 4.203132e+02 | 4.311705e+02 |   2.58%|  25.30%
*41.0s|   330 |    79 | 16983 |  50.2 |    LP  |  25 |2600 |3463 |2612 | 803 |  1 |1042 |1228 | 4.203132e+02 | 4.308606e+02 |   2.51%|  26.46%
 time | node  | left  |LP iter|LP it/n|mem/heur|mdpt |vars |cons |rows |cuts |sepa|confs|strbr|  dualbound   | primalbound  |  gap   | compl. 
 43.0s|   400 |    86 | 19240 |  47.1 |    62M |  25 |2600 |3503 |2616 | 910 |  1 |1147 |1277 | 4.210674e+02 | 4.308606e+02 |   2.33%|  29.71%
*44.0s|   433 |    68 | 20286 |  45.9 |    LP  |  25 |2600 |3529 |2616 | 952 |  2 |1198 |1295 | 4.216286e+02 | 4.294841e+02 |   1.86%|  33.06%
*45.0s|   483 |    61 | 22014 |  44.7 |    LP  |  25 |2600 |3552 |2615 |1016 |  2 |1255 |1323 | 4.216286e+02 | 4.291179e+02 |   1.78%|  38.14%
*46.0s|   497 |    57 | 22451 |  44.3 |    LP  |  25 |2600 |3548 |2615 |1039 |  1 |1274 |1325 | 4.216286e+02 | 4.289816e+02 |   1.74%|  40.56%
 46.0s|   500 |    56 | 22541 |  44.3 |    63M |  25 |2600 |3534 |2614 |1039 |  2 |1274 |1325 | 4.216286e+02 | 4.289816e+02 |   1.74%|  40.99%
 48.0s|   600 |    63 | 25264 |  41.4 |    63M |  25 |2600 |3568 |2609 |1150 |  2 |1381 |1356 | 4.218240e+02 | 4.289816e+02 |   1.70%|  48.04%
 50.0s|   700 |    52 | 27767 |  39.1 |    63M |  25 |2600 |3639 |2624 |1237 |  1 |1521 |1389 | 4.218240e+02 | 4.289816e+02 |   1.70%|  53.67%
 52.0s|   800 |    54 | 30752 |  37.9 |    65M |  25 |2600 |3629 |2608 |1362 |  1 |1630 |1433 | 4.220508e+02 | 4.289816e+02 |   1.64%|  59.01%
 54.0s|   900 |    49 | 34089 |  37.4 |    65M |  25 |2600 |3650 |2614 |1447 |  2 |1762 |1459 | 4.221133e+02 | 4.289816e+02 |   1.63%|  66.44%
 56.0s|  1000 |    33 | 36648 |  36.2 |    65M |  25 |2600 |3647 |2618 |1536 |  2 |1875 |1467 | 4.221543e+02 | 4.289816e+02 |   1.62%|  76.26%
*56.0s|  1045 |    36 | 38341 |  36.3 |    LP  |  25 |2600 |3624 |2610 |1570 |  2 |1901 |1469 | 4.230323e+02 | 4.288718e+02 |   1.38%|  78.61%
 57.0s|  1100 |    20 | 40312 |  36.3 |    66M |  25 |2600 |3596 |2614 |1652 |  0 |1990 |1485 | 4.232573e+02 | 4.288718e+02 |   1.33%|  87.41%
 59.0s|  1200 |     9 | 42607 |  35.2 |    66M |  25 |2600 |3576 |   0 |1719 |  0 |2059 |1490 | 4.240900e+02 | 4.288718e+02 |   1.13%|  94.86%

SCIP Status        : problem is solved [optimal solution found]
Solving Time (sec) : 60.00
Solving Nodes      : 1241
Primal Bound       : +4.28871756392034e+02 (14 solutions)
Dual Bound         : +4.28871756392034e+02
Gap                : 0.00 %
Trying to solve problem with MTZ Solver Method...
Starting Solver, time limit setted to 10 minutes
Route:  [[0, 31], [1, 28], [2, 27], [3, 17], [4, 36], [5, 47], [6, 42], [7, 21], [8, 29], [9, 48], [10, 37], [11, 45], [12, 40], [13, 24], [14, 44], [15, 1], [16, 3], [17, 46], [18, 41], [19, 34], [20, 49], [21, 0], [22, 6], [23, 13], [24, 12], [25, 7], [26, 5], [27, 30], [28, 19], [29, 33], [30, 25], [31, 10], [32, 38], [33, 20], [34, 35], [35, 2], [36, 16], [37, 4], [38, 9], [39, 18], [40, 39], [41, 43], [42, 23], [43, 14], [44, 32], [45, 50], [46, 11], [47, 22], [48, 8], [49, 15], [50, 26]]
A Solution was found
Objective value: 428.9
Problem solved in 43814 iterations
Problem solved in 1241 nodes
Final Route Configuration succesfully created at:
data/routes/eil51.csv
